c nIsolatedPIs 24
c maxPI 176
p cnf 614 1315
c gate 177 79 167 0
79 -177 0
167 -177 0
-79 -167 177 0
c gate 178 80 168 0
80 -178 0
168 -178 0
-80 -168 178 0
c gate 179 -177 -178 0
-177 -179 0
-178 -179 0
177 178 179 0
c gate 180 -78 -166 0
-78 -180 0
-166 -180 0
78 166 180 0
c gate 181 -79 -167 0
-79 -181 0
-167 -181 0
79 167 181 0
c gate 182 -180 -181 0
-180 -182 0
-181 -182 0
180 181 182 0
c gate 183 -76 -164 0
-76 -183 0
-164 -183 0
76 164 183 0
c gate 184 -77 -165 0
-77 -184 0
-165 -184 0
77 165 184 0
c gate 185 -183 -184 0
-183 -185 0
-184 -185 0
183 184 185 0
c gate 186 73 161 0
73 -186 0
161 -186 0
-73 -161 186 0
c gate 187 74 162 0
74 -187 0
162 -187 0
-74 -162 187 0
c gate 188 -186 -187 0
-186 -188 0
-187 -188 0
186 187 188 0
c gate 189 -74 -162 0
-74 -189 0
-162 -189 0
74 162 189 0
c gate 190 -75 -163 0
-75 -190 0
-163 -190 0
75 163 190 0
c gate 191 -189 -190 0
-189 -191 0
-190 -191 0
189 190 191 0
c gate 192 -188 191 0
-188 -192 0
191 -192 0
188 -191 192 0
c gate 193 75 163 0
75 -193 0
163 -193 0
-75 -163 193 0
c gate 194 76 164 0
76 -194 0
164 -194 0
-76 -164 194 0
c gate 195 -193 -194 0
-193 -195 0
-194 -195 0
193 194 195 0
c gate 196 -192 195 0
-192 -196 0
195 -196 0
192 -195 196 0
c gate 197 185 -196 0
185 -197 0
-196 -197 0
-185 196 197 0
c gate 198 77 165 0
77 -198 0
165 -198 0
-77 -165 198 0
c gate 199 78 166 0
78 -199 0
166 -199 0
-78 -166 199 0
c gate 200 -198 -199 0
-198 -200 0
-199 -200 0
198 199 200 0
c gate 201 -197 200 0
-197 -201 0
200 -201 0
197 -200 201 0
c gate 202 -68 -156 0
-68 -202 0
-156 -202 0
68 156 202 0
c gate 203 65 153 0
65 -203 0
153 -203 0
-65 -153 203 0
c gate 204 66 154 0
66 -204 0
154 -204 0
-66 -154 204 0
c gate 205 -203 -204 0
-203 -205 0
-204 -205 0
203 204 205 0
c gate 206 -66 -154 0
-66 -206 0
-154 -206 0
66 154 206 0
c gate 207 -67 -155 0
-67 -207 0
-155 -207 0
67 155 207 0
c gate 208 -206 -207 0
-206 -208 0
-207 -208 0
206 207 208 0
c gate 209 -205 208 0
-205 -209 0
208 -209 0
205 -208 209 0
c gate 210 67 155 0
67 -210 0
155 -210 0
-67 -155 210 0
c gate 211 68 156 0
68 -211 0
156 -211 0
-68 -156 211 0
c gate 212 -210 -211 0
-210 -212 0
-211 -212 0
210 211 212 0
c gate 213 -209 212 0
-209 -213 0
212 -213 0
209 -212 213 0
c gate 214 -202 -213 0
-202 -214 0
-213 -214 0
202 213 214 0
c gate 215 63 151 0
63 -215 0
151 -215 0
-63 -151 215 0
c gate 216 64 152 0
64 -216 0
152 -216 0
-64 -152 216 0
c gate 217 -215 -216 0
-215 -217 0
-216 -217 0
215 216 217 0
c gate 218 -63 -151 0
-63 -218 0
-151 -218 0
63 151 218 0
c gate 219 -62 -150 0
-62 -219 0
-150 -219 0
62 150 219 0
c gate 220 61 149 0
61 -220 0
149 -220 0
-61 -149 220 0
c gate 221 62 150 0
62 -221 0
150 -221 0
-62 -150 221 0
c gate 222 -220 -221 0
-220 -222 0
-221 -222 0
220 221 222 0
c gate 223 -219 -222 0
-219 -223 0
-222 -223 0
219 222 223 0
c gate 224 -60 -148 0
-60 -224 0
-148 -224 0
60 148 224 0
c gate 225 60 148 0
60 -225 0
148 -225 0
-60 -148 225 0
c gate 226 59 147 0
59 -226 0
147 -226 0
-59 -147 226 0
c gate 227 -225 -226 0
-225 -227 0
-226 -227 0
225 226 227 0
c gate 228 57 145 0
57 -228 0
145 -228 0
-57 -145 228 0
c gate 229 58 146 0
58 -229 0
146 -229 0
-58 -146 229 0
c gate 230 -228 -229 0
-228 -230 0
-229 -230 0
228 229 230 0
c gate 231 -58 -146 0
-58 -231 0
-146 -231 0
58 146 231 0
c gate 232 -59 -147 0
-59 -232 0
-147 -232 0
59 147 232 0
c gate 233 -231 -232 0
-231 -233 0
-232 -233 0
231 232 233 0
c gate 234 -230 233 0
-230 -234 0
233 -234 0
230 -233 234 0
c gate 235 227 -234 0
227 -235 0
-234 -235 0
-227 234 235 0
c gate 236 -224 -235 0
-224 -236 0
-235 -236 0
224 235 236 0
c gate 237 55 143 0
55 -237 0
143 -237 0
-55 -143 237 0
c gate 238 -54 -142 0
-54 -238 0
-142 -238 0
54 142 238 0
c gate 239 -237 -238 0
-237 -239 0
-238 -239 0
237 238 239 0
c gate 240 56 144 0
56 -240 0
144 -240 0
-56 -144 240 0
c gate 241 -53 -141 0
-53 -241 0
-141 -241 0
53 141 241 0
c gate 242 -240 -241 0
-240 -242 0
-241 -242 0
240 241 242 0
c gate 243 239 242 0
239 -243 0
242 -243 0
-239 -242 243 0
c gate 244 -55 -143 0
-55 -244 0
-143 -244 0
55 143 244 0
c gate 245 -56 -144 0
-56 -245 0
-144 -245 0
56 144 245 0
c gate 246 -244 -245 0
-244 -246 0
-245 -246 0
244 245 246 0
c gate 247 53 141 0
53 -247 0
141 -247 0
-53 -141 247 0
c gate 248 54 142 0
54 -248 0
142 -248 0
-54 -142 248 0
c gate 249 -247 -248 0
-247 -249 0
-248 -249 0
247 248 249 0
c gate 250 246 249 0
246 -250 0
249 -250 0
-246 -249 250 0
c gate 251 243 250 0
243 -251 0
250 -251 0
-243 -250 251 0
c gate 252 52 140 0
52 -252 0
140 -252 0
-52 -140 252 0
c gate 253 51 139 0
51 -253 0
139 -253 0
-51 -139 253 0
c gate 254 -252 -253 0
-252 -254 0
-253 -254 0
252 253 254 0
c gate 255 -52 -140 0
-52 -255 0
-140 -255 0
52 140 255 0
c gate 256 -254 -255 0
-254 -256 0
-255 -256 0
254 255 256 0
c gate 257 -51 -139 0
-51 -257 0
-139 -257 0
51 139 257 0
c gate 258 -255 -257 0
-255 -258 0
-257 -258 0
255 257 258 0
c gate 259 254 258 0
254 -259 0
258 -259 0
-254 -258 259 0
c gate 260 49 137 0
49 -260 0
137 -260 0
-49 -137 260 0
c gate 261 50 138 0
50 -261 0
138 -261 0
-50 -138 261 0
c gate 262 -260 -261 0
-260 -262 0
-261 -262 0
260 261 262 0
c gate 263 -50 -138 0
-50 -263 0
-138 -263 0
50 138 263 0
c gate 264 -262 -263 0
-262 -264 0
-263 -264 0
262 263 264 0
c gate 265 259 264 0
259 -265 0
264 -265 0
-259 -264 265 0
c gate 266 -256 -265 0
-256 -266 0
-265 -266 0
256 265 266 0
c gate 267 251 -266 0
251 -267 0
-266 -267 0
-251 266 267 0
c gate 268 -238 -249 0
-238 -268 0
-249 -268 0
238 249 268 0
c gate 269 -237 -268 0
-237 -269 0
-268 -269 0
237 268 269 0
c gate 270 246 -269 0
246 -270 0
-269 -270 0
-246 269 270 0
c gate 271 -240 -270 0
-240 -271 0
-270 -271 0
240 270 271 0
c gate 272 -267 271 0
-267 -272 0
271 -272 0
267 -271 272 0
c gate 273 -57 -145 0
-57 -273 0
-145 -273 0
57 145 273 0
c gate 274 -224 -273 0
-224 -274 0
-273 -274 0
224 273 274 0
c gate 275 227 274 0
227 -275 0
274 -275 0
-227 -274 275 0
c gate 276 230 233 0
230 -276 0
233 -276 0
-230 -233 276 0
c gate 277 275 276 0
275 -277 0
276 -277 0
-275 -276 277 0
c gate 278 -272 277 0
-272 -278 0
277 -278 0
272 -277 278 0
c gate 279 -236 -278 0
-236 -279 0
-278 -279 0
236 278 279 0
c gate 280 -45 -133 0
-45 -280 0
-133 -280 0
45 133 280 0
c gate 281 -15 -103 0
-15 -281 0
-103 -281 0
15 103 281 0
c gate 282 -14 -102 0
-14 -282 0
-102 -282 0
14 102 282 0
c gate 283 -281 -282 0
-281 -283 0
-282 -283 0
281 282 283 0
c gate 284 14 102 0
14 -284 0
102 -284 0
-14 -102 284 0
c gate 285 13 101 0
13 -285 0
101 -285 0
-13 -101 285 0
c gate 286 -284 -285 0
-284 -286 0
-285 -286 0
284 285 286 0
c gate 287 -13 -101 0
-13 -287 0
-101 -287 0
13 101 287 0
c gate 288 -12 -100 0
-12 -288 0
-100 -288 0
12 100 288 0
c gate 289 -287 -288 0
-287 -289 0
-288 -289 0
287 288 289 0
c gate 290 9 97 0
9 -290 0
97 -290 0
-9 -97 290 0
c gate 291 10 98 0
10 -291 0
98 -291 0
-10 -98 291 0
c gate 292 -290 -291 0
-290 -292 0
-291 -292 0
290 291 292 0
c gate 293 -11 -99 0
-11 -293 0
-99 -293 0
11 99 293 0
c gate 294 -10 -98 0
-10 -294 0
-98 -294 0
10 98 294 0
c gate 295 -293 -294 0
-293 -295 0
-294 -295 0
293 294 295 0
c gate 296 -292 295 0
-292 -296 0
295 -296 0
292 -295 296 0
c gate 297 11 99 0
11 -297 0
99 -297 0
-11 -99 297 0
c gate 298 12 100 0
12 -298 0
100 -298 0
-12 -100 298 0
c gate 299 -297 -298 0
-297 -299 0
-298 -299 0
297 298 299 0
c gate 300 -296 299 0
-296 -300 0
299 -300 0
296 -299 300 0
c gate 301 2 90 0
2 -301 0
90 -301 0
-2 -90 301 0
c gate 302 1 89 0
1 -302 0
89 -302 0
-1 -89 302 0
c gate 303 -301 -302 0
-301 -303 0
-302 -303 0
301 302 303 0
c gate 304 -3 -91 0
-3 -304 0
-91 -304 0
3 91 304 0
c gate 305 -2 -90 0
-2 -305 0
-90 -305 0
2 90 305 0
c gate 306 -304 -305 0
-304 -306 0
-305 -306 0
304 305 306 0
c gate 307 -303 306 0
-303 -307 0
306 -307 0
303 -306 307 0
c gate 308 4 92 0
4 -308 0
92 -308 0
-4 -92 308 0
c gate 309 3 91 0
3 -309 0
91 -309 0
-3 -91 309 0
c gate 310 -308 -309 0
-308 -310 0
-309 -310 0
308 309 310 0
c gate 311 -307 310 0
-307 -311 0
310 -311 0
307 -310 311 0
c gate 312 -4 -92 0
-4 -312 0
-92 -312 0
4 92 312 0
c gate 313 -5 -93 0
-5 -313 0
-93 -313 0
5 93 313 0
c gate 314 -312 -313 0
-312 -314 0
-313 -314 0
312 313 314 0
c gate 315 -311 314 0
-311 -315 0
314 -315 0
311 -314 315 0
c gate 316 6 94 0
6 -316 0
94 -316 0
-6 -94 316 0
c gate 317 5 93 0
5 -317 0
93 -317 0
-5 -93 317 0
c gate 318 -316 -317 0
-316 -318 0
-317 -318 0
316 317 318 0
c gate 319 -315 318 0
-315 -319 0
318 -319 0
315 -318 319 0
c gate 320 -7 -95 0
-7 -320 0
-95 -320 0
7 95 320 0
c gate 321 -6 -94 0
-6 -321 0
-94 -321 0
6 94 321 0
c gate 322 -320 -321 0
-320 -322 0
-321 -322 0
320 321 322 0
c gate 323 -319 322 0
-319 -323 0
322 -323 0
319 -322 323 0
c gate 324 8 96 0
8 -324 0
96 -324 0
-8 -96 324 0
c gate 325 7 95 0
7 -325 0
95 -325 0
-7 -95 325 0
c gate 326 -324 -325 0
-324 -326 0
-325 -326 0
324 325 326 0
c gate 327 -323 326 0
-323 -327 0
326 -327 0
323 -326 327 0
c gate 328 -8 -96 0
-8 -328 0
-96 -328 0
8 96 328 0
c gate 329 -9 -97 0
-9 -329 0
-97 -329 0
9 97 329 0
c gate 330 -328 -329 0
-328 -330 0
-329 -330 0
328 329 330 0
c gate 331 292 330 0
292 -331 0
330 -331 0
-292 -330 331 0
c gate 332 295 331 0
295 -332 0
331 -332 0
-295 -331 332 0
c gate 333 -327 332 0
-327 -333 0
332 -333 0
327 -332 333 0
c gate 334 300 -333 0
300 -334 0
-333 -334 0
-300 333 334 0
c gate 335 289 -334 0
289 -335 0
-334 -335 0
-289 334 335 0
c gate 336 286 -335 0
286 -336 0
-335 -336 0
-286 335 336 0
c gate 337 283 -336 0
283 -337 0
-336 -337 0
-283 336 337 0
c gate 338 289 -300 0
289 -338 0
-300 -338 0
-289 300 338 0
c gate 339 286 -338 0
286 -339 0
-338 -339 0
-286 338 339 0
c gate 340 283 -339 0
283 -340 0
-339 -340 0
-283 339 340 0
c gate 341 15 103 0
15 -341 0
103 -341 0
-15 -103 341 0
c gate 342 16 104 0
16 -342 0
104 -342 0
-16 -104 342 0
c gate 343 -341 -342 0
-341 -343 0
-342 -343 0
341 342 343 0
c gate 344 -340 343 0
-340 -344 0
343 -344 0
340 -343 344 0
c gate 345 -337 344 0
-337 -345 0
344 -345 0
337 -344 345 0
c gate 346 -22 -110 0
-22 -346 0
-110 -346 0
22 110 346 0
c gate 347 21 109 0
21 -347 0
109 -347 0
-21 -109 347 0
c gate 348 -346 347 0
-346 -348 0
347 -348 0
346 -347 348 0
c gate 349 23 111 0
23 -349 0
111 -349 0
-23 -111 349 0
c gate 350 22 110 0
22 -350 0
110 -350 0
-22 -110 350 0
c gate 351 -349 -350 0
-349 -351 0
-350 -351 0
349 350 351 0
c gate 352 -348 351 0
-348 -352 0
351 -352 0
348 -351 352 0
c gate 353 -23 -111 0
-23 -353 0
-111 -353 0
23 111 353 0
c gate 354 -24 -112 0
-24 -354 0
-112 -354 0
24 112 354 0
c gate 355 -353 -354 0
-353 -355 0
-354 -355 0
353 354 355 0
c gate 356 24 112 0
24 -356 0
112 -356 0
-24 -112 356 0
c gate 357 -346 -356 0
-346 -357 0
-356 -357 0
346 356 357 0
c gate 358 -21 -109 0
-21 -358 0
-109 -358 0
21 109 358 0
c gate 359 -20 -108 0
-20 -359 0
-108 -359 0
20 108 359 0
c gate 360 -358 -359 0
-358 -360 0
-359 -360 0
358 359 360 0
c gate 361 357 360 0
357 -361 0
360 -361 0
-357 -360 361 0
c gate 362 355 361 0
355 -362 0
361 -362 0
-355 -361 362 0
c gate 363 352 362 0
352 -363 0
362 -363 0
-352 -362 363 0
c gate 364 -19 -107 0
-19 -364 0
-107 -364 0
19 107 364 0
c gate 365 -18 -106 0
-18 -365 0
-106 -365 0
18 106 365 0
c gate 366 -364 -365 0
-364 -366 0
-365 -366 0
364 365 366 0
c gate 367 -16 -104 0
-16 -367 0
-104 -367 0
16 104 367 0
c gate 368 -17 -105 0
-17 -368 0
-105 -368 0
17 105 368 0
c gate 369 -367 -368 0
-367 -369 0
-368 -369 0
367 368 369 0
c gate 370 366 369 0
366 -370 0
369 -370 0
-366 -369 370 0
c gate 371 19 107 0
19 -371 0
107 -371 0
-19 -107 371 0
c gate 372 20 108 0
20 -372 0
108 -372 0
-20 -108 372 0
c gate 373 -371 -372 0
-371 -373 0
-372 -373 0
371 372 373 0
c gate 374 18 106 0
18 -374 0
106 -374 0
-18 -106 374 0
c gate 375 17 105 0
17 -375 0
105 -375 0
-17 -105 375 0
c gate 376 -374 -375 0
-374 -376 0
-375 -376 0
374 375 376 0
c gate 377 373 376 0
373 -377 0
376 -377 0
-373 -376 377 0
c gate 378 370 377 0
370 -378 0
377 -378 0
-370 -377 378 0
c gate 379 363 378 0
363 -379 0
378 -379 0
-363 -378 379 0
c gate 380 -345 379 0
-345 -380 0
379 -380 0
345 -379 380 0
c gate 381 366 -376 0
366 -381 0
-376 -381 0
-366 376 381 0
c gate 382 373 -381 0
373 -382 0
-381 -382 0
-373 381 382 0
c gate 383 363 -382 0
363 -383 0
-382 -383 0
-363 382 383 0
c gate 384 -352 355 0
-352 -384 0
355 -384 0
352 -355 384 0
c gate 385 -356 -384 0
-356 -385 0
-384 -385 0
356 384 385 0
c gate 386 -383 385 0
-383 -386 0
385 -386 0
383 -385 386 0
c gate 387 -380 386 0
-380 -387 0
386 -387 0
380 -386 387 0
c gate 388 25 113 0
25 -388 0
113 -388 0
-25 -113 388 0
c gate 389 26 114 0
26 -389 0
114 -389 0
-26 -114 389 0
c gate 390 -388 -389 0
-388 -390 0
-389 -390 0
388 389 390 0
c gate 391 -27 -115 0
-27 -391 0
-115 -391 0
27 115 391 0
c gate 392 -26 -114 0
-26 -392 0
-114 -392 0
26 114 392 0
c gate 393 -391 -392 0
-391 -393 0
-392 -393 0
391 392 393 0
c gate 394 -25 -113 0
-25 -394 0
-113 -394 0
25 113 394 0
c gate 395 393 -394 0
393 -395 0
-394 -395 0
-393 394 395 0
c gate 396 390 395 0
390 -396 0
395 -396 0
-390 -395 396 0
c gate 397 -387 396 0
-387 -397 0
396 -397 0
387 -396 397 0
c gate 398 -390 393 0
-390 -398 0
393 -398 0
390 -393 398 0
c gate 399 28 116 0
28 -399 0
116 -399 0
-28 -116 399 0
c gate 400 27 115 0
27 -400 0
115 -400 0
-27 -115 400 0
c gate 401 -399 -400 0
-399 -401 0
-400 -401 0
399 400 401 0
c gate 402 -398 401 0
-398 -402 0
401 -402 0
398 -401 402 0
c gate 403 -397 402 0
-397 -403 0
402 -403 0
397 -402 403 0
c gate 404 -30 -118 0
-30 -404 0
-118 -404 0
30 118 404 0
c gate 405 -31 -119 0
-31 -405 0
-119 -405 0
31 119 405 0
c gate 406 -404 -405 0
-404 -406 0
-405 -406 0
404 405 406 0
c gate 407 -29 -117 0
-29 -407 0
-117 -407 0
29 117 407 0
c gate 408 -28 -116 0
-28 -408 0
-116 -408 0
28 116 408 0
c gate 409 -407 -408 0
-407 -409 0
-408 -409 0
407 408 409 0
c gate 410 406 409 0
406 -410 0
409 -410 0
-406 -409 410 0
c gate 411 -403 410 0
-403 -411 0
410 -411 0
403 -410 411 0
c gate 412 29 117 0
29 -412 0
117 -412 0
-29 -117 412 0
c gate 413 30 118 0
30 -413 0
118 -413 0
-30 -118 413 0
c gate 414 -412 -413 0
-412 -414 0
-413 -414 0
412 413 414 0
c gate 415 406 -414 0
406 -415 0
-414 -415 0
-406 414 415 0
c gate 416 31 119 0
31 -416 0
119 -416 0
-31 -119 416 0
c gate 417 32 120 0
32 -417 0
120 -417 0
-32 -120 417 0
c gate 418 -416 -417 0
-416 -418 0
-417 -418 0
416 417 418 0
c gate 419 -415 418 0
-415 -419 0
418 -419 0
415 -418 419 0
c gate 420 -411 419 0
-411 -420 0
419 -420 0
411 -419 420 0
c gate 421 -35 -123 0
-35 -421 0
-123 -421 0
35 123 421 0
c gate 422 -36 -124 0
-36 -422 0
-124 -422 0
36 124 422 0
c gate 423 -421 -422 0
-421 -423 0
-422 -423 0
421 422 423 0
c gate 424 -32 -120 0
-32 -424 0
-120 -424 0
32 120 424 0
c gate 425 -34 -122 0
-34 -425 0
-122 -425 0
34 122 425 0
c gate 426 -33 -121 0
-33 -426 0
-121 -426 0
33 121 426 0
c gate 427 -425 -426 0
-425 -427 0
-426 -427 0
425 426 427 0
c gate 428 -424 427 0
-424 -428 0
427 -428 0
424 -427 428 0
c gate 429 423 428 0
423 -429 0
428 -429 0
-423 -428 429 0
c gate 430 -420 429 0
-420 -430 0
429 -430 0
420 -429 430 0
c gate 431 36 124 0
36 -431 0
124 -431 0
-36 -124 431 0
c gate 432 33 121 0
33 -432 0
121 -432 0
-33 -121 432 0
c gate 433 -425 432 0
-425 -433 0
432 -433 0
425 -432 433 0
c gate 434 35 123 0
35 -434 0
123 -434 0
-35 -123 434 0
c gate 435 34 122 0
34 -435 0
122 -435 0
-34 -122 435 0
c gate 436 -434 -435 0
-434 -436 0
-435 -436 0
434 435 436 0
c gate 437 -433 436 0
-433 -437 0
436 -437 0
433 -436 437 0
c gate 438 423 -437 0
423 -438 0
-437 -438 0
-423 437 438 0
c gate 439 -431 -438 0
-431 -439 0
-438 -439 0
431 438 439 0
c gate 440 -430 439 0
-430 -440 0
439 -440 0
430 -439 440 0
c gate 441 -39 -127 0
-39 -441 0
-127 -441 0
39 127 441 0
c gate 442 -40 -128 0
-40 -442 0
-128 -442 0
40 128 442 0
c gate 443 -441 -442 0
-441 -443 0
-442 -443 0
441 442 443 0
c gate 444 -38 -126 0
-38 -444 0
-126 -444 0
38 126 444 0
c gate 445 -37 -125 0
-37 -445 0
-125 -445 0
37 125 445 0
c gate 446 -444 -445 0
-444 -446 0
-445 -446 0
444 445 446 0
c gate 447 443 446 0
443 -447 0
446 -447 0
-443 -446 447 0
c gate 448 -440 447 0
-440 -448 0
447 -448 0
440 -447 448 0
c gate 449 40 128 0
40 -449 0
128 -449 0
-40 -128 449 0
c gate 450 37 125 0
37 -450 0
125 -450 0
-37 -125 450 0
c gate 451 -444 450 0
-444 -451 0
450 -451 0
444 -450 451 0
c gate 452 39 127 0
39 -452 0
127 -452 0
-39 -127 452 0
c gate 453 38 126 0
38 -453 0
126 -453 0
-38 -126 453 0
c gate 454 -452 -453 0
-452 -454 0
-453 -454 0
452 453 454 0
c gate 455 -451 454 0
-451 -455 0
454 -455 0
451 -454 455 0
c gate 456 443 -455 0
443 -456 0
-455 -456 0
-443 455 456 0
c gate 457 -449 -456 0
-449 -457 0
-456 -457 0
449 456 457 0
c gate 458 -448 457 0
-448 -458 0
457 -458 0
448 -457 458 0
c gate 459 -44 -132 0
-44 -459 0
-132 -459 0
44 132 459 0
c gate 460 -43 -131 0
-43 -460 0
-131 -460 0
43 131 460 0
c gate 461 -459 -460 0
-459 -461 0
-460 -461 0
459 460 461 0
c gate 462 -41 -129 0
-41 -462 0
-129 -462 0
41 129 462 0
c gate 463 -42 -130 0
-42 -463 0
-130 -463 0
42 130 463 0
c gate 464 41 129 0
41 -464 0
129 -464 0
-41 -129 464 0
c gate 465 -463 -464 0
-463 -465 0
-464 -465 0
463 464 465 0
c gate 466 -462 465 0
-462 -466 0
465 -466 0
462 -465 466 0
c gate 467 461 466 0
461 -467 0
466 -467 0
-461 -466 467 0
c gate 468 -458 467 0
-458 -468 0
467 -468 0
458 -467 468 0
c gate 469 44 132 0
44 -469 0
132 -469 0
-44 -132 469 0
c gate 470 -463 464 0
-463 -470 0
464 -470 0
463 -464 470 0
c gate 471 43 131 0
43 -471 0
131 -471 0
-43 -131 471 0
c gate 472 42 130 0
42 -472 0
130 -472 0
-42 -130 472 0
c gate 473 -471 -472 0
-471 -473 0
-472 -473 0
471 472 473 0
c gate 474 -470 473 0
-470 -474 0
473 -474 0
470 -473 474 0
c gate 475 461 -474 0
461 -475 0
-474 -475 0
-461 474 475 0
c gate 476 -469 -475 0
-469 -476 0
-475 -476 0
469 475 476 0
c gate 477 -468 476 0
-468 -477 0
476 -477 0
468 -476 477 0
c gate 478 -280 -477 0
-280 -478 0
-477 -478 0
280 477 478 0
c gate 479 46 134 0
46 -479 0
134 -479 0
-46 -134 479 0
c gate 480 45 133 0
45 -480 0
133 -480 0
-45 -133 480 0
c gate 481 -479 -480 0
-479 -481 0
-480 -481 0
479 480 481 0
c gate 482 -478 481 0
-478 -482 0
481 -482 0
478 -481 482 0
c gate 483 -46 -134 0
-46 -483 0
-134 -483 0
46 134 483 0
c gate 484 -47 -135 0
-47 -484 0
-135 -484 0
47 135 484 0
c gate 485 -483 -484 0
-483 -485 0
-484 -485 0
483 484 485 0
c gate 486 -482 485 0
-482 -486 0
485 -486 0
482 -485 486 0
c gate 487 48 136 0
48 -487 0
136 -487 0
-48 -136 487 0
c gate 488 47 135 0
47 -488 0
135 -488 0
-47 -135 488 0
c gate 489 -487 -488 0
-487 -489 0
-488 -489 0
487 488 489 0
c gate 490 -486 489 0
-486 -490 0
489 -490 0
486 -489 490 0
c gate 491 -49 -137 0
-49 -491 0
-137 -491 0
49 137 491 0
c gate 492 -48 -136 0
-48 -492 0
-136 -492 0
48 136 492 0
c gate 493 -263 -492 0
-263 -493 0
-492 -493 0
263 492 493 0
c gate 494 -491 493 0
-491 -494 0
493 -494 0
491 -493 494 0
c gate 495 262 494 0
262 -495 0
494 -495 0
-262 -494 495 0
c gate 496 259 495 0
259 -496 0
495 -496 0
-259 -495 496 0
c gate 497 251 496 0
251 -497 0
496 -497 0
-251 -496 497 0
c gate 498 -490 497 0
-490 -498 0
497 -498 0
490 -497 498 0
c gate 499 277 498 0
277 -499 0
498 -499 0
-277 -498 499 0
c gate 500 279 -499 0
279 -500 0
-499 -500 0
-279 499 500 0
c gate 501 -61 -149 0
-61 -501 0
-149 -501 0
61 149 501 0
c gate 502 -219 -501 0
-219 -502 0
-501 -502 0
219 501 502 0
c gate 503 222 502 0
222 -503 0
502 -503 0
-222 -502 503 0
c gate 504 -500 503 0
-500 -504 0
503 -504 0
500 -503 504 0
c gate 505 -223 -504 0
-223 -505 0
-504 -505 0
223 504 505 0
c gate 506 -218 -505 0
-218 -506 0
-505 -506 0
218 505 506 0
c gate 507 217 -506 0
217 -507 0
-506 -507 0
-217 506 507 0
c gate 508 -65 -153 0
-65 -508 0
-153 -508 0
65 153 508 0
c gate 509 -64 -152 0
-64 -509 0
-152 -509 0
64 152 509 0
c gate 510 -202 -509 0
-202 -510 0
-509 -510 0
202 509 510 0
c gate 511 -508 510 0
-508 -511 0
510 -511 0
508 -510 511 0
c gate 512 208 511 0
208 -512 0
511 -512 0
-208 -511 512 0
c gate 513 213 512 0
213 -513 0
512 -513 0
-213 -512 513 0
c gate 514 -507 513 0
-507 -514 0
513 -514 0
507 -513 514 0
c gate 515 -214 -514 0
-214 -515 0
-514 -515 0
214 514 515 0
c gate 516 69 157 0
69 -516 0
157 -516 0
-69 -157 516 0
c gate 517 70 158 0
70 -517 0
158 -517 0
-70 -158 517 0
c gate 518 -516 -517 0
-516 -518 0
-517 -518 0
516 517 518 0
c gate 519 -70 -158 0
-70 -519 0
-158 -519 0
70 158 519 0
c gate 520 -69 -157 0
-69 -520 0
-157 -520 0
69 157 520 0
c gate 521 -519 -520 0
-519 -521 0
-520 -521 0
519 520 521 0
c gate 522 518 521 0
518 -522 0
521 -522 0
-518 -521 522 0
c gate 523 71 159 0
71 -523 0
159 -523 0
-71 -159 523 0
c gate 524 72 160 0
72 -524 0
160 -524 0
-72 -160 524 0
c gate 525 -523 -524 0
-523 -525 0
-524 -525 0
523 524 525 0
c gate 526 -71 -159 0
-71 -526 0
-159 -526 0
71 159 526 0
c gate 527 -72 -160 0
-72 -527 0
-160 -527 0
72 160 527 0
c gate 528 -526 -527 0
-526 -528 0
-527 -528 0
526 527 528 0
c gate 529 525 528 0
525 -529 0
528 -529 0
-525 -528 529 0
c gate 530 522 529 0
522 -530 0
529 -530 0
-522 -529 530 0
c gate 531 -515 530 0
-515 -531 0
530 -531 0
515 -530 531 0
c gate 532 -518 -519 0
-518 -532 0
-519 -532 0
518 519 532 0
c gate 533 -526 532 0
-526 -533 0
532 -533 0
526 -532 533 0
c gate 534 525 -533 0
525 -534 0
-533 -534 0
-525 533 534 0
c gate 535 -527 -534 0
-527 -535 0
-534 -535 0
527 534 535 0
c gate 536 -531 -535 0
-531 -536 0
-535 -536 0
531 535 536 0
c gate 537 -73 -161 0
-73 -537 0
-161 -537 0
73 161 537 0
c gate 538 185 -537 0
185 -538 0
-537 -538 0
-185 537 538 0
c gate 539 191 538 0
191 -539 0
538 -539 0
-191 -538 539 0
c gate 540 196 539 0
196 -540 0
539 -540 0
-196 -539 540 0
c gate 541 -536 540 0
-536 -541 0
540 -541 0
536 -540 541 0
c gate 542 201 -541 0
201 -542 0
-541 -542 0
-201 541 542 0
c gate 543 182 -542 0
182 -543 0
-542 -543 0
-182 542 543 0
c gate 544 179 -543 0
179 -544 0
-543 -544 0
-179 543 544 0
c gate 545 -80 -168 0
-80 -545 0
-168 -545 0
80 168 545 0
c gate 546 182 -201 0
182 -546 0
-201 -546 0
-182 201 546 0
c gate 547 179 -546 0
179 -547 0
-546 -547 0
-179 546 547 0
c gate 548 86 174 0
86 -548 0
174 -548 0
-86 -174 548 0
c gate 549 84 172 0
84 -549 0
172 -549 0
-84 -172 549 0
c gate 550 -548 -549 0
-548 -550 0
-549 -550 0
548 549 550 0
c gate 551 -88 -176 0
-88 -551 0
-176 -551 0
88 176 551 0
c gate 552 -83 -171 0
-83 -552 0
-171 -552 0
83 171 552 0
c gate 553 -551 -552 0
-551 -553 0
-552 -553 0
551 552 553 0
c gate 554 550 553 0
550 -554 0
553 -554 0
-550 -553 554 0
c gate 555 -86 -174 0
-86 -555 0
-174 -555 0
86 174 555 0
c gate 556 82 170 0
82 -556 0
170 -556 0
-82 -170 556 0
c gate 557 -555 -556 0
-555 -557 0
-556 -557 0
555 556 557 0
c gate 558 -81 -169 0
-81 -558 0
-169 -558 0
81 169 558 0
c gate 559 -84 -172 0
-84 -559 0
-172 -559 0
84 172 559 0
c gate 560 -558 -559 0
-558 -560 0
-559 -560 0
558 559 560 0
c gate 561 557 560 0
557 -561 0
560 -561 0
-557 -560 561 0
c gate 562 554 561 0
554 -562 0
561 -562 0
-554 -561 562 0
c gate 563 83 171 0
83 -563 0
171 -563 0
-83 -171 563 0
c gate 564 85 173 0
85 -564 0
173 -564 0
-85 -173 564 0
c gate 565 -563 -564 0
-563 -565 0
-564 -565 0
563 564 565 0
c gate 566 87 175 0
87 -566 0
175 -566 0
-87 -175 566 0
c gate 567 88 176 0
88 -567 0
176 -567 0
-88 -176 567 0
c gate 568 -566 -567 0
-566 -568 0
-567 -568 0
566 567 568 0
c gate 569 565 568 0
565 -569 0
568 -569 0
-565 -568 569 0
c gate 570 -82 -170 0
-82 -570 0
-170 -570 0
82 170 570 0
c gate 571 81 169 0
81 -571 0
169 -571 0
-81 -169 571 0
c gate 572 -570 -571 0
-570 -572 0
-571 -572 0
570 571 572 0
c gate 573 -85 -173 0
-85 -573 0
-173 -573 0
85 173 573 0
c gate 574 -87 -175 0
-87 -574 0
-175 -574 0
87 175 574 0
c gate 575 -573 -574 0
-573 -575 0
-574 -575 0
573 574 575 0
c gate 576 572 575 0
572 -576 0
575 -576 0
-572 -575 576 0
c gate 577 569 576 0
569 -577 0
576 -577 0
-569 -576 577 0
c gate 578 562 577 0
562 -578 0
577 -578 0
-562 -577 578 0
c gate 579 -547 -578 0
-547 -579 0
-578 -579 0
547 578 579 0
c gate 580 -545 -579 0
-545 -580 0
-579 -580 0
545 579 580 0
c gate 581 -544 580 0
-544 -581 0
580 -581 0
544 -580 581 0
c gate 582 214 -520 0
214 -582 0
-520 -582 0
-214 520 582 0
c gate 583 518 -582 0
518 -583 0
-582 -583 0
-518 582 583 0
c gate 584 -519 -526 0
-519 -584 0
-526 -584 0
519 526 584 0
c gate 585 -583 584 0
-583 -585 0
584 -585 0
583 -584 585 0
c gate 586 525 -585 0
525 -586 0
-585 -586 0
-525 585 586 0
c gate 587 -527 -586 0
-527 -587 0
-586 -587 0
527 586 587 0
c gate 588 -279 503 0
-279 -588 0
503 -588 0
279 -503 588 0
c gate 589 -223 -588 0
-223 -589 0
-588 -589 0
223 588 589 0
c gate 590 -218 -589 0
-218 -590 0
-589 -590 0
218 589 590 0
c gate 591 217 -590 0
217 -591 0
-590 -591 0
-217 590 591 0
c gate 592 513 -591 0
513 -592 0
-591 -592 0
-513 591 592 0
c gate 593 530 592 0
530 -593 0
592 -593 0
-530 -592 593 0
c gate 594 -587 -593 0
-587 -594 0
-593 -594 0
587 593 594 0
c gate 595 -536 -594 0
-536 -595 0
-594 -595 0
536 594 595 0
c gate 596 536 594 0
536 -596 0
594 -596 0
-536 -594 596 0
c gate 597 -595 -596 0
-595 -597 0
-596 -597 0
595 596 597 0
c gate 598 -515 522 0
-515 -598 0
522 -598 0
515 -522 598 0
c gate 599 -532 -598 0
-532 -599 0
-598 -599 0
532 598 599 0
c gate 600 -214 -516 0
-214 -600 0
-516 -600 0
214 516 600 0
c gate 601 -592 600 0
-592 -601 0
600 -601 0
592 -600 601 0
c gate 602 521 -601 0
521 -602 0
-601 -602 0
-521 601 602 0
c gate 603 -517 -602 0
-517 -603 0
-602 -603 0
517 602 603 0
c gate 604 599 -603 0
599 -604 0
-603 -604 0
-599 603 604 0
c gate 605 -599 603 0
-599 -605 0
603 -605 0
599 -603 605 0
c gate 606 272 498 0
272 -606 0
498 -606 0
-272 -498 606 0
c gate 607 344 -367 0
344 -607 0
-367 -607 0
-344 367 607 0
c gate 608 337 607 0
337 -608 0
607 -608 0
-337 -607 608 0
c gate 609 -380 -608 0
-380 -609 0
-608 -609 0
380 608 609 0
c gate 610 -606 609 0
-606 -610 0
609 -610 0
606 -609 610 0
c gate 611 -605 610 0
-605 -611 0
610 -611 0
605 -610 611 0
c gate 612 -604 611 0
-604 -612 0
611 -612 0
604 -611 612 0
c gate 613 -597 612 0
-597 -613 0
612 -613 0
597 -612 613 0
c gate 614 -581 613 0
-581 -614 0
613 -614 0
581 -613 614 0
c PO
-614 0
